Ni2MnIn                                 
   5.76     
     1.0384287775736070    0.0000000000000000    0.0000000000000000
     0.0000000000000000    1.0384287775736070    0.0000000000000000
     0.0000000000000000    0.0000000000000000    1.0384287775736070
   Ni   Mn   In
     8     6     2
Direct
  0.2532676997224131  0.2689533819893466  0.2653478610651994
  0.7467323002775865  0.2689533819893466  0.2653478610651994
  0.2532676997224131  0.7310466180106535  0.2653478610651994
  0.7467323002775865  0.7310466180106535  0.2653478610651994
  0.2532676997224131  0.2689533819893466  0.7346521389348005
  0.7467323002775865  0.2689533819893466  0.7346521389348005
  0.2532676997224131  0.7310466180106535  0.7346521389348005
  0.7467323002775865  0.7310466180106535  0.7346521389348005
  0.5000000000000000  0.5000000000000000  0.0000000000000000
  0.0000000000000000  0.5000000000000000  0.0000000000000000
  0.0000000000000000  0.0000000000000000  0.5000000000000000
  0.5000000000000000  0.0000000000000000  0.5000000000000000
  0.5000000000000000  0.5000000000000000  0.5000000000000000
  0.0000000000000000  0.5000000000000000  0.5000000000000000
  0.0000000000000000  0.0000000000000000  0.0000000000000000
  0.5000000000000000  0.0000000000000000  0.0000000000000000