Ni2MnIn                                 
   5.76     
     1.0384287775736070    0.0000000000000000    0.0000000000000000
     0.0000000000000000    1.0384287775736070    0.0000000000000000
     0.0000000000000000    0.0000000000000000    1.0384287775736070
   Ni   Mn   In
     8     6     2
Direct
  0.2532524836026839  0.2532524836026839  0.2705051116222817
  0.7467475163973162  0.2532524836026839  0.2705051116222817
  0.2532524836026839  0.7467475163973162  0.2705051116222817
  0.7467475163973162  0.7467475163973162  0.2705051116222817
  0.2532524836026839  0.2532524836026839  0.7294948883777185
  0.7467475163973162  0.2532524836026839  0.7294948883777185
  0.2532524836026839  0.7467475163973162  0.7294948883777185
  0.7467475163973162  0.7467475163973162  0.7294948883777185
  0.5000000000000000  0.0000000000000000  0.0000000000000000
  0.0000000000000000  0.5000000000000000  0.0000000000000000
  0.0000000000000000  0.0000000000000000  0.5000000000000000
  0.5000000000000000  0.0000000000000000  0.5000000000000000
  0.5000000000000000  0.5000000000000000  0.5000000000000000
  0.0000000000000000  0.5000000000000000  0.5000000000000000
  0.0000000000000000  0.0000000000000000  0.0000000000000000
  0.5000000000000000  0.5000000000000000  0.0000000000000000