Ni2MnIn                                 
   5.76     
     1.0384287775736070    0.0000000000000000    0.0000000000000000
     0.0000000000000000    1.0384287775736070    0.0000000000000000
     0.0000000000000000    0.0000000000000000    1.0384287775736070
   Ni   Mn   In
     8     6     2
Direct
  0.2504935259855835  0.2495064740144166  0.2666695354198034
  0.7495064740144166  0.2495064740144166  0.2666695354198034
  0.2504935259855835  0.7504935259855834  0.2666695354198034
  0.7495064740144166  0.7504935259855834  0.2666695354198034
  0.2504935259855835  0.2495064740144166  0.7333304645801965
  0.7495064740144166  0.2495064740144166  0.7333304645801965
  0.2504935259855835  0.7504935259855834  0.7333304645801965
  0.7495064740144166  0.7504935259855834  0.7333304645801965
  0.5000000000000000  0.0000000000000000  0.0000000000000000
  0.0000000000000000  0.5000000000000000  0.0000000000000000
  0.0000000000000000  0.0000000000000000  0.5000000000000000
  0.5000000000000000  0.0000000000000000  0.5000000000000000
  0.5000000000000000  0.5000000000000000  0.5000000000000000
  0.0000000000000000  0.5000000000000000  0.5000000000000000
  0.0000000000000000  0.0000000000000000  0.0000000000000000
  0.5000000000000000  0.5000000000000000  0.0000000000000000