Ni2MnIn                                 
   5.76     
     1.0384287775736070    0.0000000000000000    0.0000000000000000
     0.0000000000000000    1.0384287775736070    0.0000000000000000
     0.0000000000000000    0.0000000000000000    1.0384287775736070
   Ni   Mn   In
     8     6     2
Direct
  0.2501052614488245  0.2670246291035825  0.2641881663267797
  0.7498947385511755  0.2670246291035825  0.2641881663267797
  0.2501052614488245  0.7329753708964175  0.2641881663267797
  0.7498947385511755  0.7329753708964175  0.2641881663267797
  0.2501052614488245  0.2670246291035825  0.7358118336732203
  0.7498947385511755  0.2670246291035825  0.7358118336732203
  0.2501052614488245  0.7329753708964175  0.7358118336732203
  0.7498947385511755  0.7329753708964175  0.7358118336732203
  0.5000000000000000  0.5000000000000000  0.0000000000000000
 -0.0000000000000000  0.5000000000000000  0.0000000000000000
 -0.0000000000000000  0.0000000000000000  0.5000000000000000
  0.5000000000000000  0.0000000000000000  0.5000000000000000
  0.5000000000000000  0.5000000000000000  0.5000000000000000
 -0.0000000000000000  0.5000000000000000  0.5000000000000000
 -0.0000000000000000  0.0000000000000000  0.0000000000000000
  0.5000000000000000  0.0000000000000000  0.0000000000000000