Ni2MnIn                                 
   5.76     
     1.0384287775736070    0.0000000000000000    0.0000000000000000
     0.0000000000000000    1.0384287775736070    0.0000000000000000
     0.0000000000000000    0.0000000000000000    1.0384287775736070
   Ni   Mn   In
     8     6     2
Direct
  0.2465223906369919  0.2465223906369919  0.2538974953641193
  0.7534776093630082  0.2465223906369919  0.2538974953641193
  0.2465223906369919  0.7534776093630082  0.2538974953641193
  0.7534776093630082  0.7534776093630082  0.2538974953641193
  0.2465223906369919  0.2465223906369919  0.7461025046358807
  0.7534776093630082  0.2465223906369919  0.7461025046358807
  0.2465223906369919  0.7534776093630082  0.7461025046358807
  0.7534776093630082  0.7534776093630082  0.7461025046358807
  0.5000000000000000  0.0000000000000000 -0.0000000000000000
  0.5000000000000000  0.5000000000000000 -0.0000000000000000
 -0.0000000000000000  0.5000000000000000 -0.0000000000000000
 -0.0000000000000000  0.0000000000000000  0.5000000000000000
  0.5000000000000000  0.0000000000000000  0.5000000000000000
 -0.0000000000000000  0.5000000000000000  0.5000000000000000
 -0.0000000000000000  0.0000000000000000 -0.0000000000000000
  0.5000000000000000  0.5000000000000000  0.5000000000000000