Ni2MnIn                                 
   5.76     
     1.0384287775736070    0.0000000000000000    0.0000000000000000
     0.0000000000000000    1.0384287775736070    0.0000000000000000
     0.0000000000000000    0.0000000000000000    1.0384287775736070
   Ni   Mn   In
     8     6     2
Direct
  0.2506786448597186  0.2680170189783225  0.2652460279305014
  0.7493213551402815  0.2680170189783225  0.2652460279305014
  0.2506786448597186  0.7319829810216777  0.2652460279305014
  0.7493213551402815  0.7319829810216777  0.2652460279305014
  0.2506786448597186  0.2680170189783225  0.7347539720694987
  0.7493213551402815  0.2680170189783225  0.7347539720694987
  0.2506786448597186  0.7319829810216777  0.7347539720694987
  0.7493213551402815  0.7319829810216777  0.7347539720694987
  0.5000000000000000  0.5000000000000000 -0.0000000000000000
 -0.0000000000000000  0.5000000000000000 -0.0000000000000000
 -0.0000000000000000 -0.0000000000000000  0.5000000000000000
  0.5000000000000000 -0.0000000000000000  0.5000000000000000
  0.5000000000000000  0.5000000000000000  0.5000000000000000
 -0.0000000000000000  0.5000000000000000  0.5000000000000000
 -0.0000000000000000 -0.0000000000000000 -0.0000000000000000
  0.5000000000000000 -0.0000000000000000 -0.0000000000000000