Ni2MnIn                                 
   5.76     
     1.0384287775736070    0.0000000000000000    0.0000000000000000
     0.0000000000000000    1.0384287775736070    0.0000000000000000
     0.0000000000000000    0.0000000000000000    1.0384287775736070
   Ni   Mn   In
     8     6     2
Direct
  0.2499850648873170  0.2499909682463059  0.2712675043022205
  0.7500149351126830  0.2499909682463059  0.2712675043022205
  0.2499850648873170  0.7500090317536940  0.2712675043022205
  0.7500149351126830  0.7500090317536940  0.2712675043022205
  0.2499850648873170  0.2499909682463059  0.7287324956977794
  0.7500149351126830  0.2499909682463059  0.7287324956977794
  0.2499850648873170  0.7500090317536940  0.7287324956977794
  0.7500149351126830  0.7500090317536940  0.7287324956977794
  0.5000000000000000 -0.0000000000000000 -0.0000000000000000
 -0.0000000000000000  0.5000000000000000 -0.0000000000000000
 -0.0000000000000000 -0.0000000000000000  0.5000000000000000
  0.5000000000000000 -0.0000000000000000  0.5000000000000000
  0.5000000000000000  0.5000000000000000  0.5000000000000000
 -0.0000000000000000  0.5000000000000000  0.5000000000000000
 -0.0000000000000000 -0.0000000000000000 -0.0000000000000000
  0.5000000000000000  0.5000000000000000 -0.0000000000000000