Ni2MnIn                                 
   5.76     
     1.0384287775736070    0.0000000000000000    0.0000000000000000
     0.0000000000000000    1.0384287775736070    0.0000000000000000
     0.0000000000000000    0.0000000000000000    1.0384287775736070
   Ni   Mn   In
     8     6     2
Direct
  0.2500114107845287  0.2631960458520187  0.2631960458520187
  0.7499885892154714  0.2631960458520187  0.2631960458520187
  0.2500114107845287  0.7368039541479812  0.2631960458520187
  0.7499885892154714  0.7368039541479812  0.2631960458520187
  0.2500114107845287  0.2631960458520187  0.7368039541479812
  0.7499885892154714  0.2631960458520187  0.7368039541479812
  0.2500114107845287  0.7368039541479812  0.7368039541479812
  0.7499885892154714  0.7368039541479812  0.7368039541479812
  0.5000000000000000  0.5000000000000000 -0.0000000000000000
  0.0000000000000000  0.5000000000000000 -0.0000000000000000
  0.0000000000000000 -0.0000000000000000  0.5000000000000000
  0.5000000000000000 -0.0000000000000000  0.5000000000000000
  0.5000000000000000  0.5000000000000000  0.5000000000000000
  0.0000000000000000  0.5000000000000000  0.5000000000000000
  0.0000000000000000 -0.0000000000000000 -0.0000000000000000
  0.5000000000000000 -0.0000000000000000 -0.0000000000000000