Ni2MnIn                                 
   5.76     
     1.0384287775736070    0.0000000000000000    0.0000000000000000
     0.0000000000000000    1.0384287775736070    0.0000000000000000
     0.0000000000000000    0.0000000000000000    1.0384287775736070
   Ni   Mn   In
     8     6     2
Direct
  0.2537304258493621  0.2462694098946571  0.2499721109621625
  0.7462695741506380  0.2462694098946571  0.2499721109621625
  0.2537304258493621  0.7537305901053428  0.2499721109621625
  0.7462695741506380  0.7537305901053428  0.2499721109621625
  0.2537304258493621  0.2462694098946571  0.7500278890378376
  0.7462695741506380  0.2462694098946571  0.7500278890378376
  0.2537304258493621  0.7537305901053428  0.7500278890378376
  0.7462695741506380  0.7537305901053428  0.7500278890378376
  0.5000000000000000  0.0000000000000000  0.0000000000000000
  0.5000000000000000  0.5000000000000000  0.0000000000000000
  0.0000000000000000  0.5000000000000000  0.0000000000000000
  0.0000000000000000  0.0000000000000000  0.5000000000000000
  0.5000000000000000  0.0000000000000000  0.5000000000000000
  0.0000000000000000  0.5000000000000000  0.5000000000000000
  0.0000000000000000  0.0000000000000000  0.0000000000000000
  0.5000000000000000  0.5000000000000000  0.5000000000000000