Ni2MnIn                                 
   5.76     
     1.0384287775736070    0.0000000000000000    0.0000000000000000
     0.0000000000000000    1.0384287775736070    0.0000000000000000
     0.0000000000000000    0.0000000000000000    1.0384287775736070
   Ni   Mn   In
     8     6     2
Direct
  0.2500000000000000  0.2666509822773729  0.2675015620628343
  0.7500000000000000  0.2666509822773729  0.2675015620628343
  0.2500000000000000  0.7333490177226271  0.2675015620628343
  0.7500000000000000  0.7333490177226271  0.2675015620628343
  0.2500000000000000  0.2666509822773729  0.7324984379371657
  0.7500000000000000  0.2666509822773729  0.7324984379371657
  0.2500000000000000  0.7333490177226271  0.7324984379371657
  0.7500000000000000  0.7333490177226271  0.7324984379371657
  0.5000000000000000  0.5000000000000000 -0.0000000000000000
  0.0000000000000000  0.5000000000000000  0.0000000000000000
 -0.0000000000000000  0.0000000000000000  0.5000000000000000
  0.5000000000000000  0.0000000000000000  0.5000000000000000
  0.5000000000000000  0.5000000000000000  0.5000000000000000
  0.0000000000000000  0.5000000000000000  0.5000000000000000
  0.0000000000000000  0.0000000000000000  0.0000000000000000
  0.5000000000000000  0.0000000000000000 -0.0000000000000000