Ni2MnIn                                 
   5.76     
     1.0384287775736070    0.0000000000000000    0.0000000000000000
     0.0000000000000000    1.0384287775736070    0.0000000000000000
     0.0000000000000000    0.0000000000000000    1.0384287775736070
   Ni   Mn   In
     8     6     2
Direct
  0.2495583262503020  0.2504416737496980  0.2684330395481860
  0.7504416737496979  0.2504416737496980  0.2684330395481860
  0.2495583262503020  0.7495583262503021  0.2684330395481860
  0.7504416737496979  0.7495583262503021  0.2684330395481860
  0.2495583262503020  0.2504416737496980  0.7315669604518140
  0.7504416737496979  0.2504416737496980  0.7315669604518140
  0.2495583262503020  0.7495583262503021  0.7315669604518140
  0.7504416737496979  0.7495583262503021  0.7315669604518140
  0.5000000000000000  0.0000000000000000  0.0000000000000000
  0.0000000000000000  0.5000000000000000  0.0000000000000000
  0.0000000000000000  0.0000000000000000  0.5000000000000000
  0.5000000000000000  0.0000000000000000  0.5000000000000000
  0.5000000000000000  0.5000000000000000  0.5000000000000000
  0.0000000000000000  0.5000000000000000  0.5000000000000000
  0.0000000000000000  0.0000000000000000  0.0000000000000000
  0.5000000000000000  0.5000000000000000  0.0000000000000000