Ni2MnIn                                 
   5.76     
     1.0384287775736070    0.0000000000000000    0.0000000000000000
     0.0000000000000000    1.0384287775736070    0.0000000000000000
     0.0000000000000000    0.0000000000000000    1.0384287775736070
   Ni   Mn   In
     8     6     2
Direct
  0.2559297232929421  0.2440702767070579  0.2627545575295296
  0.7440702767070578  0.2440702767070579  0.2627545575295296
  0.2559297232929421  0.7559297232929422  0.2627545575295296
  0.7440702767070578  0.7559297232929422  0.2627545575295296
  0.2559297232929421  0.2440702767070579  0.7372454424704704
  0.7440702767070578  0.2440702767070579  0.7372454424704704
  0.2559297232929421  0.7559297232929422  0.7372454424704704
  0.7440702767070578  0.7559297232929422  0.7372454424704704
  0.5000000000000000 -0.0000000000000000 -0.0000000000000000
 -0.0000000000000000  0.5000000000000000 -0.0000000000000000
 -0.0000000000000000 -0.0000000000000000  0.5000000000000000
  0.5000000000000000 -0.0000000000000000  0.5000000000000000
  0.5000000000000000  0.5000000000000000  0.5000000000000000
 -0.0000000000000000  0.5000000000000000  0.5000000000000000
 -0.0000000000000000 -0.0000000000000000 -0.0000000000000000
  0.5000000000000000  0.5000000000000000 -0.0000000000000000