Ni2MnIn                                 
   5.76     
     1.0384287775736070    0.0000000000000000    0.0000000000000000
     0.0000000000000000    1.0384287775736070    0.0000000000000000
     0.0000000000000000    0.0000000000000000    1.0384287775736070
   Ni   Mn   In
     8     6     2
Direct
  0.2463819741142158  0.2504967078106247  0.2504967078106247
  0.7536180258857842  0.2504967078106247  0.2504967078106247
  0.2463819741142158  0.7495032921893754  0.2504967078106247
  0.7536180258857842  0.7495032921893754  0.2504967078106247
  0.2463819741142158  0.2504967078106247  0.7495032921893754
  0.7536180258857842  0.2504967078106247  0.7495032921893754
  0.2463819741142158  0.7495032921893754  0.7495032921893754
  0.7536180258857842  0.7495032921893754  0.7495032921893754
  0.5000000000000000  0.0000000000000000 -0.0000000000000000
  0.5000000000000000  0.5000000000000000 -0.0000000000000000
  0.0000000000000000  0.5000000000000000 -0.0000000000000000
  0.0000000000000000  0.0000000000000000  0.5000000000000000
  0.5000000000000000  0.0000000000000000  0.5000000000000000
  0.0000000000000000  0.5000000000000000  0.5000000000000000
  0.0000000000000000  0.0000000000000000 -0.0000000000000000
  0.5000000000000000  0.5000000000000000  0.5000000000000000