Ni2MnIn                                 
   5.76     
     1.0384287775736070    0.0000000000000000    0.0000000000000000
     0.0000000000000000    1.0384287775736070    0.0000000000000000
     0.0000000000000000    0.0000000000000000    1.0384287775736070
   Ni   Mn   In
     8     6     2
Direct
  0.2500000000000000  0.2660066653990056  0.2660066653990056
  0.7500000000000000  0.2660066653990056  0.2660066653990056
  0.2500000000000000  0.7339933346009944  0.2660066653990056
  0.7500000000000000  0.7339933346009944  0.2660066653990056
  0.2500000000000000  0.2660066653990056  0.7339933346009944
  0.7500000000000000  0.2660066653990056  0.7339933346009944
  0.2500000000000000  0.7339933346009944  0.7339933346009944
  0.7500000000000000  0.7339933346009944  0.7339933346009944
  0.5000000000000000  0.5000000000000000 -0.0000000000000000
  0.0000000000000000  0.5000000000000000 -0.0000000000000000
  0.0000000000000000  0.0000000000000000  0.5000000000000000
  0.5000000000000000  0.0000000000000000  0.5000000000000000
  0.5000000000000000  0.5000000000000000  0.5000000000000000
  0.0000000000000000  0.5000000000000000  0.5000000000000000
  0.0000000000000000  0.0000000000000000 -0.0000000000000000
  0.5000000000000000  0.0000000000000000 -0.0000000000000000