Ni2MnIn                                 
   5.76     
     1.0384287775736070    0.0000000000000000    0.0000000000000000
     0.0000000000000000    1.0384287775736070    0.0000000000000000
     0.0000000000000000    0.0000000000000000    1.0384287775736070
   Ni   Mn   In
     8     6     2
Direct
  0.2457516659835399  0.2542483340164600  0.2689739357681437
  0.7542483340164602  0.2542483340164600  0.2689739357681437
  0.2457516659835399  0.7457516659835398  0.2689739357681437
  0.7542483340164602  0.7457516659835398  0.2689739357681437
  0.2457516659835399  0.2542483340164600  0.7310260642318565
  0.7542483340164602  0.2542483340164600  0.7310260642318565
  0.2457516659835399  0.7457516659835398  0.7310260642318565
  0.7542483340164602  0.7457516659835398  0.7310260642318565
  0.5000000000000000  0.0000000000000000  0.0000000000000000
  0.0000000000000000  0.5000000000000000  0.0000000000000000
  0.0000000000000000  0.0000000000000000  0.5000000000000000
  0.5000000000000000  0.0000000000000000  0.5000000000000000
  0.5000000000000000  0.5000000000000000  0.5000000000000000
  0.0000000000000000  0.5000000000000000  0.5000000000000000
  0.0000000000000000  0.0000000000000000  0.0000000000000000
  0.5000000000000000  0.5000000000000000  0.0000000000000000