Ni2MnIn                                 
   5.76     
     1.0384287775736070    0.0000000000000000    0.0000000000000000
     0.0000000000000000    1.0384287775736070    0.0000000000000000
     0.0000000000000000    0.0000000000000000    1.0384287775736070
   Ni   Mn   In
     8     6     2
Direct
  0.2493435493462344  0.2506564506537656  0.2684731770193839
  0.7506564506537656  0.2506564506537656  0.2684731770193839
  0.2493435493462344  0.7493435493462344  0.2684731770193839
  0.7506564506537656  0.7493435493462344  0.2684731770193839
  0.2493435493462344  0.2506564506537656  0.7315268229806162
  0.7506564506537656  0.2506564506537656  0.7315268229806162
  0.2493435493462344  0.7493435493462344  0.7315268229806162
  0.7506564506537656  0.7493435493462344  0.7315268229806162
  0.5000000000000000  0.0000000000000000  0.0000000000000000
  0.0000000000000000  0.5000000000000000  0.0000000000000000
  0.0000000000000000  0.0000000000000000  0.5000000000000000
  0.5000000000000000  0.0000000000000000  0.5000000000000000
  0.5000000000000000  0.5000000000000000  0.5000000000000000
  0.0000000000000000  0.5000000000000000  0.5000000000000000
  0.0000000000000000  0.0000000000000000  0.0000000000000000
  0.5000000000000000  0.5000000000000000  0.0000000000000000