Ni2MnIn                                 
   5.76     
     1.0384287775736070    0.0000000000000000    0.0000000000000000
     0.0000000000000000    1.0384287775736070    0.0000000000000000
     0.0000000000000000    0.0000000000000000    1.0384287775736070
   Ni   Mn   In
     8     6     2
Direct
  0.2499999806152488  0.2680750786467565  0.2680750786467565
  0.7500000193847512  0.2680750786467565  0.2680750786467565
  0.2499999806152488  0.7319249213532434  0.2680750786467565
  0.7500000193847512  0.7319249213532434  0.2680750786467565
  0.2499999806152488  0.2680750786467565  0.7319249213532434
  0.7500000193847512  0.2680750786467565  0.7319249213532434
  0.2499999806152488  0.7319249213532434  0.7319249213532434
  0.7500000193847512  0.7319249213532434  0.7319249213532434
  0.5000000000000000  0.5000000000000000 -0.0000000000000000
  0.0000000000000000  0.5000000000000000 -0.0000000000000000
  0.0000000000000000 -0.0000000000000000  0.5000000000000000
  0.5000000000000000 -0.0000000000000000  0.5000000000000000
  0.5000000000000000  0.5000000000000000  0.5000000000000000
  0.0000000000000000  0.5000000000000000  0.5000000000000000
  0.0000000000000000 -0.0000000000000000 -0.0000000000000000
  0.5000000000000000 -0.0000000000000000 -0.0000000000000000