Ni2MnIn                                 
   5.76     
     1.0384287775736070    0.0000000000000000    0.0000000000000000
     0.0000000000000000    1.0384287775736070    0.0000000000000000
     0.0000000000000000    0.0000000000000000    1.0384287775736070
   Ni   Mn   In
     8     6     2
Direct
  0.2496842374461372  0.2526936395454362  0.2689991436630357
  0.7503157625538629  0.2526936395454362  0.2689991436630357
  0.2496842374461372  0.7473063604545639  0.2689991436630357
  0.7503157625538629  0.7473063604545639  0.2689991436630357
  0.2496842374461372  0.2526936395454362  0.7310008563369647
  0.7503157625538629  0.2526936395454362  0.7310008563369647
  0.2496842374461372  0.7473063604545639  0.7310008563369647
  0.7503157625538629  0.7473063604545639  0.7310008563369647
  0.5000000000000000  0.0000000000000000 -0.0000000000000000
  0.0000000000000000  0.5000000000000000 -0.0000000000000000
  0.0000000000000000  0.0000000000000000  0.5000000000000000
  0.5000000000000000  0.0000000000000000  0.5000000000000000
  0.5000000000000000  0.5000000000000000  0.5000000000000000
  0.0000000000000000  0.5000000000000000  0.5000000000000000
  0.0000000000000000  0.0000000000000000 -0.0000000000000000
  0.5000000000000000  0.5000000000000000 -0.0000000000000000