Ni2MnIn                                 
   5.76     
     1.0384287775736070    0.0000000000000000    0.0000000000000000
     0.0000000000000000    1.0384287775736070    0.0000000000000000
     0.0000000000000000    0.0000000000000000    1.0384287775736070
   Ni   Mn   In
     8     6     2
Direct
  0.2500177555034038  0.2658501861901811  0.2658492240547107
  0.7499822444965962  0.2658501861901811  0.2658492240547107
  0.2500177555034038  0.7341498138098189  0.2658492240547107
  0.7499822444965962  0.7341498138098189  0.2658492240547107
  0.2500177555034038  0.2658501861901811  0.7341507759452893
  0.7499822444965962  0.2658501861901811  0.7341507759452893
  0.2500177555034038  0.7341498138098189  0.7341507759452893
  0.7499822444965962  0.7341498138098189  0.7341507759452893
  0.5000000000000000  0.5000000000000000  0.0000000000000000
 -0.0000000000000000  0.5000000000000000  0.0000000000000000
 -0.0000000000000000 -0.0000000000000000  0.5000000000000000
  0.5000000000000000 -0.0000000000000000  0.5000000000000000
  0.5000000000000000  0.5000000000000000  0.5000000000000000
 -0.0000000000000000  0.5000000000000000  0.5000000000000000
 -0.0000000000000000 -0.0000000000000000  0.0000000000000000
  0.5000000000000000 -0.0000000000000000  0.0000000000000000