Ni2MnIn                                 
   5.76     
     1.0384287775736070    0.0000000000000000    0.0000000000000000
     0.0000000000000000    1.0384287775736070    0.0000000000000000
     0.0000000000000000    0.0000000000000000    1.0384287775736070
   Ni   Mn   In
     8     6     2
Direct
  0.2525582623016727  0.2525582623016727  0.2706368256233784
  0.7474417376983274  0.2525582623016727  0.2706368256233784
  0.2525582623016727  0.7474417376983274  0.2706368256233784
  0.7474417376983274  0.7474417376983274  0.2706368256233784
  0.2525582623016727  0.2525582623016727  0.7293631743766217
  0.7474417376983274  0.2525582623016727  0.7293631743766217
  0.2525582623016727  0.7474417376983274  0.7293631743766217
  0.7474417376983274  0.7474417376983274  0.7293631743766217
  0.5000000000000000  0.0000000000000000 -0.0000000000000000
  0.0000000000000000  0.5000000000000000 -0.0000000000000000
  0.0000000000000000  0.0000000000000000  0.5000000000000000
  0.5000000000000000  0.0000000000000000  0.5000000000000000
  0.5000000000000000  0.5000000000000000  0.5000000000000000
  0.0000000000000000  0.5000000000000000  0.5000000000000000
  0.0000000000000000  0.0000000000000000 -0.0000000000000000
  0.5000000000000000  0.5000000000000000 -0.0000000000000000