Ni2MnIn                                 
   5.76     
     1.0384287775736070    0.0000000000000000    0.0000000000000000
     0.0000000000000000    1.0384287775736070    0.0000000000000000
     0.0000000000000000    0.0000000000000000    1.0384287775736070
   Ni   Mn   In
     8     6     2
Direct
  0.2498068038234894  0.2498068038234894  0.2685321028512340
  0.7501931961765107  0.2498068038234894  0.2685321028512340
  0.2498068038234894  0.7501931961765107  0.2685321028512340
  0.7501931961765107  0.7501931961765107  0.2685321028512340
  0.2498068038234894  0.2498068038234894  0.7314678971487661
  0.7501931961765107  0.2498068038234894  0.7314678971487661
  0.2498068038234894  0.7501931961765107  0.7314678971487661
  0.7501931961765107  0.7501931961765107  0.7314678971487661
  0.5000000000000000  0.0000000000000000 -0.0000000000000000
  0.0000000000000000  0.5000000000000000 -0.0000000000000000
  0.0000000000000000  0.0000000000000000  0.5000000000000000
  0.5000000000000000  0.0000000000000000  0.5000000000000000
  0.5000000000000000  0.5000000000000000  0.5000000000000000
  0.0000000000000000  0.5000000000000000  0.5000000000000000
  0.0000000000000000  0.0000000000000000 -0.0000000000000000
  0.5000000000000000  0.5000000000000000 -0.0000000000000000