Ni2MnIn                                 
   5.76     
     1.0384287775736070    0.0000000000000000    0.0000000000000000
     0.0000000000000000    1.0384287775736070    0.0000000000000000
     0.0000000000000000    0.0000000000000000    1.0384287775736070
   Ni   Mn   In
     8     6     2
Direct
  0.2500751384142513  0.2499248615857487  0.2686616255168320
  0.7499248615857487  0.2499248615857487  0.2686616255168320
  0.2500751384142513  0.7500751384142513  0.2686616255168320
  0.7499248615857487  0.7500751384142513  0.2686616255168320
  0.2500751384142513  0.2499248615857487  0.7313383744831682
  0.7499248615857487  0.2499248615857487  0.7313383744831682
  0.2500751384142513  0.7500751384142513  0.7313383744831682
  0.7499248615857487  0.7500751384142513  0.7313383744831682
  0.5000000000000000  0.0000000000000000 -0.0000000000000000
  0.0000000000000000  0.5000000000000000 -0.0000000000000000
  0.0000000000000000  0.0000000000000000  0.5000000000000000
  0.5000000000000000  0.0000000000000000  0.5000000000000000
  0.5000000000000000  0.5000000000000000  0.5000000000000000
  0.0000000000000000  0.5000000000000000  0.5000000000000000
  0.0000000000000000  0.0000000000000000 -0.0000000000000000
  0.5000000000000000  0.5000000000000000 -0.0000000000000000