Ni2MnIn                                 
   5.76     
     1.0384287775736070    0.0000000000000000    0.0000000000000000
     0.0000000000000000    1.0384287775736070    0.0000000000000000
     0.0000000000000000    0.0000000000000000    1.0384287775736070
   Ni   Mn   In
     8     6     2
Direct
  0.2498948805274717  0.2641904507538619  0.2670274387758932
  0.7501051194725282  0.2641904507538619  0.2670274387758932
  0.2498948805274717  0.7358095492461383  0.2670274387758932
  0.7501051194725282  0.7358095492461383  0.2670274387758932
  0.2498948805274717  0.2641904507538619  0.7329725612241066
  0.7501051194725282  0.2641904507538619  0.7329725612241066
  0.2498948805274717  0.7358095492461383  0.7329725612241066
  0.7501051194725282  0.7358095492461383  0.7329725612241066
  0.5000000000000000  0.5000000000000000  0.0000000000000000
  0.0000000000000000  0.5000000000000000  0.0000000000000000
  0.0000000000000000  0.0000000000000000  0.5000000000000000
  0.5000000000000000  0.0000000000000000  0.5000000000000000
  0.5000000000000000  0.5000000000000000  0.5000000000000000
  0.0000000000000000  0.5000000000000000  0.5000000000000000
  0.0000000000000000  0.0000000000000000  0.0000000000000000
  0.5000000000000000  0.0000000000000000  0.0000000000000000