Ni2MnIn                                 
   5.76     
     1.0384287775736070    0.0000000000000000    0.0000000000000000
     0.0000000000000000    1.0384287775736070    0.0000000000000000
     0.0000000000000000    0.0000000000000000    1.0384287775736070
   Ni   Mn   In
     8     6     2
Direct
  0.2499850649503244  0.2499909683028027  0.2712675030398868
  0.7500149350496756  0.2499909683028027  0.2712675030398868
  0.2499850649503244  0.7500090316971973  0.2712675030398868
  0.7500149350496756  0.7500090316971973  0.2712675030398868
  0.2499850649503244  0.2499909683028027  0.7287324969601131
  0.7500149350496756  0.2499909683028027  0.7287324969601131
  0.2499850649503244  0.7500090316971973  0.7287324969601131
  0.7500149350496756  0.7500090316971973  0.7287324969601131
  0.5000000000000000 -0.0000000000000000 -0.0000000000000000
  0.0000000000000000  0.5000000000000000 -0.0000000000000000
  0.0000000000000000 -0.0000000000000000  0.5000000000000000
  0.5000000000000000 -0.0000000000000000  0.5000000000000000
  0.5000000000000000  0.5000000000000000  0.5000000000000000
  0.0000000000000000  0.5000000000000000  0.5000000000000000
  0.0000000000000000 -0.0000000000000000 -0.0000000000000000
  0.5000000000000000  0.5000000000000000 -0.0000000000000000