Ni2MnIn                                 
   5.76     
     1.0384287775736070    0.0000000000000000    0.0000000000000000
     0.0000000000000000    1.0384287775736070    0.0000000000000000
     0.0000000000000000    0.0000000000000000    1.0384287775736070
   Ni   Mn   In
     8     6     2
Direct
  0.2550832855147912  0.2449167144852089  0.2676435227272200
  0.7449167144852088  0.2449167144852089  0.2676435227272200
  0.2550832855147912  0.7550832855147912  0.2676435227272200
  0.7449167144852088  0.7550832855147912  0.2676435227272200
  0.2550832855147912  0.2449167144852089  0.7323564772727799
  0.7449167144852088  0.2449167144852089  0.7323564772727799
  0.2550832855147912  0.7550832855147912  0.7323564772727799
  0.7449167144852088  0.7550832855147912  0.7323564772727799
  0.5000000000000000 -0.0000000000000000  0.0000000000000000
 -0.0000000000000000  0.5000000000000000  0.0000000000000000
 -0.0000000000000000 -0.0000000000000000  0.5000000000000000
  0.5000000000000000 -0.0000000000000000  0.5000000000000000
  0.5000000000000000  0.5000000000000000  0.5000000000000000
 -0.0000000000000000  0.5000000000000000  0.5000000000000000
 -0.0000000000000000 -0.0000000000000000  0.0000000000000000
  0.5000000000000000  0.5000000000000000  0.0000000000000000