Ni2MnIn                                 
   5.76     
     1.0384287775736070    0.0000000000000000    0.0000000000000000
     0.0000000000000000    1.0384287775736070    0.0000000000000000
     0.0000000000000000    0.0000000000000000    1.0384287775736070
   Ni   Mn   In
     8     6     2
Direct
  0.2525365052353826  0.2667050865457657  0.2667050865457657
  0.7474634947646175  0.2667050865457657  0.2667050865457657
  0.2525365052353826  0.7332949134542345  0.2667050865457657
  0.7474634947646175  0.7332949134542345  0.2667050865457657
  0.2525365052353826  0.2667050865457657  0.7332949134542345
  0.7474634947646175  0.2667050865457657  0.7332949134542345
  0.2525365052353826  0.7332949134542345  0.7332949134542345
  0.7474634947646175  0.7332949134542345  0.7332949134542345
  0.5000000000000000  0.5000000000000000  0.0000000000000000
  0.0000000000000000  0.5000000000000000  0.0000000000000000
  0.0000000000000000 -0.0000000000000000  0.5000000000000000
  0.5000000000000000 -0.0000000000000000  0.5000000000000000
  0.5000000000000000  0.5000000000000000  0.5000000000000000
  0.0000000000000000  0.5000000000000000  0.5000000000000000
  0.0000000000000000 -0.0000000000000000  0.0000000000000000
  0.5000000000000000 -0.0000000000000000  0.0000000000000000