Ni2MnIn                                 
   5.76     
     1.0384287775736070    0.0000000000000000    0.0000000000000000
     0.0000000000000000    1.0384287775736070    0.0000000000000000
     0.0000000000000000    0.0000000000000000    1.0384287775736070
   Ni   Mn   In
     8     6     2
Direct
  0.2495032368790606  0.2495032368790606  0.2536181713023433
  0.7504967631209394  0.2495032368790606  0.2536181713023433
  0.2495032368790606  0.7504967631209394  0.2536181713023433
  0.7504967631209394  0.7504967631209394  0.2536181713023433
  0.2495032368790606  0.2495032368790606  0.7463818286976566
  0.7504967631209394  0.2495032368790606  0.7463818286976566
  0.2495032368790606  0.7504967631209394  0.7463818286976566
  0.7504967631209394  0.7504967631209394  0.7463818286976566
  0.5000000000000000  0.0000000000000000  0.0000000000000000
  0.5000000000000000  0.5000000000000000  0.0000000000000000
  0.0000000000000000  0.5000000000000000  0.0000000000000000
  0.0000000000000000  0.0000000000000000  0.5000000000000000
  0.5000000000000000  0.0000000000000000  0.5000000000000000
  0.0000000000000000  0.5000000000000000  0.5000000000000000
  0.0000000000000000  0.0000000000000000  0.0000000000000000
  0.5000000000000000  0.5000000000000000  0.5000000000000000