Ni2MnIn                                 
   5.76     
     1.0384287775736070    0.0000000000000000    0.0000000000000000
     0.0000000000000000    1.0384287775736070    0.0000000000000000
     0.0000000000000000    0.0000000000000000    1.0384287775736070
   Ni   Mn   In
     8     6     2
Direct
  0.2457383834978703  0.2595023509459239  0.2692956347318551
  0.7542616165021298  0.2595023509459239  0.2692956347318551
  0.2457383834978703  0.7404976490540761  0.2692956347318551
  0.7542616165021298  0.7404976490540761  0.2692956347318551
  0.2457383834978703  0.2595023509459239  0.7307043652681450
  0.7542616165021298  0.2595023509459239  0.7307043652681450
  0.2457383834978703  0.7404976490540761  0.7307043652681450
  0.7542616165021298  0.7404976490540761  0.7307043652681450
  0.5000000000000000  0.5000000000000000  0.0000000000000000
 -0.0000000000000000  0.5000000000000000  0.0000000000000000
 -0.0000000000000000  0.0000000000000000  0.5000000000000000
  0.5000000000000000  0.0000000000000000  0.5000000000000000
  0.5000000000000000  0.5000000000000000  0.5000000000000000
 -0.0000000000000000  0.5000000000000000  0.5000000000000000
 -0.0000000000000000  0.0000000000000000  0.0000000000000000
  0.5000000000000000  0.0000000000000000  0.0000000000000000